n = 22;
lu = [|-98, 302
      |379, 465
      |-469, 379
      |-265, 469
      |-172, 408
      |0, 167
      |-441, 394
      |-223, 291
      |-449, -171
      |-50, 94
      |-386, 118
      |-357, 395
      |105, 219
      |262, 368
      |-283, 40
      |329, 483
      |-161, 155
      |360, 456
      |-299, 77
      |-117, 42
      |-4, 53
      |-378, 420|];
